!   Calculate the heat of formation
!   using semi-emperical method.
 $BASIS GBASIS=PM3 $END
 $CONTRL SCFTYP=RHF RUNTYP=ENERGY $END
