!   Calculation of molecular orbitals
!   using a small and quick basis set
 $CONTRL COORD=CART UNITS=ANGS SCFTYP=RHF $END
 $BASIS GBASIS=STO NGAUSS=3 $END 
