! Vibration calculation after a 30 step 
! geometry optimisation via PM3
 $basis gbasis=pm3 $end
 $contrl icharg=0 runtyp=optimize $end
 $statpt hssend=.t. $end
